<?xml version = "1.0" encoding="UTF-8" standalone="yes"?>
<CPLEXSolution version="1.2">
 <header
   problemName="IloCplex"
   solutionName="p0"
   solutionIndex="-1"
   objectiveValue="285714"
   solutionTypeValue="3"
   solutionTypeString="primal"
   solutionStatusValue="127"
   solutionStatusString="integer feasible solution"
   solutionMethodString="mip"
   primalFeasible="0"
   dualFeasible="0"
   writeLevel="3"/>
 <quality
   epInt="1.0000000000000001e-05"
   epRHS="9.9999999999999995e-07"
   maxIntInfeas="0"
   maxPrimalInfeas="0"
   maxX="666"
   maxSlack="566"/>
 <variables>
  <variable index="0" value="666"/>
  <variable index="2" value="666"/>
  <variable index="3" value="666"/>
  <variable index="5" value="666"/>
  <variable index="7" value="666"/>
  <variable index="8" value="666"/>
  <variable index="36" value="1"/>
  <variable index="180" value="1"/>
  <variable index="268" value="1"/>
  <variable index="315" value="1"/>
  <variable index="438" value="1"/>
  <variable index="517" value="1"/>
  <variable index="689" value="1"/>
  <variable index="769" value="1"/>
  <variable index="826" value="1"/>
  <variable index="992" value="1"/>
  <variable index="1049" value="1"/>
  <variable index="1208" value="1"/>
  <variable index="1224" value="1"/>
  <variable index="1331" value="1"/>
  <variable index="1420" value="1"/>
  <variable index="1587" value="1"/>
  <variable index="1697" value="1"/>
  <variable index="1718" value="1"/>
  <variable index="1834" value="1"/>
  <variable index="1994" value="1"/>
  <variable index="2085" value="1"/>
  <variable index="2163" value="1"/>
  <variable index="2262" value="1"/>
  <variable index="2395" value="1"/>
  <variable index="2467" value="1"/>
  <variable index="2545" value="1"/>
  <variable index="2621" value="1"/>
  <variable index="2711" value="1"/>
  <variable index="2844" value="1"/>
  <variable index="2933" value="1"/>
  <variable index="3040" value="1"/>
  <variable index="3183" value="1"/>
  <variable index="3276" value="1"/>
  <variable index="3400" value="1"/>
  <variable index="3470" value="1"/>
  <variable index="3541" value="1"/>
  <variable index="3690" value="1"/>
  <variable index="3806" value="1"/>
  <variable index="3843" value="1"/>
  <variable index="3961" value="1"/>
  <variable index="4075" value="1"/>
  <variable index="4158" value="1"/>
  <variable index="4291" value="1"/>
  <variable index="4352" value="1"/>
  <variable index="4481" value="1"/>
  <variable index="4546" value="1"/>
  <variable index="4699" value="1"/>
  <variable index="4727" value="1"/>
  <variable index="4842" value="1"/>
  <variable index="4956" value="1"/>
  <variable index="5078" value="1"/>
  <variable index="5171" value="1"/>
  <variable index="5303" value="1"/>
  <variable index="5373" value="1"/>
  <variable index="5504" value="1"/>
  <variable index="5566" value="1"/>
  <variable index="5684" value="1"/>
  <variable index="5732" value="1"/>
  <variable index="5898" value="1"/>
  <variable index="5910" value="1"/>
  <variable index="6065" value="1"/>
  <variable index="6154" value="1"/>
  <variable index="6282" value="1"/>
  <variable index="6364" value="1"/>
  <variable index="6428" value="1"/>
  <variable index="6523" value="1"/>
  <variable index="6653" value="1"/>
  <variable index="6719" value="1"/>
  <variable index="6816" value="1"/>
  <variable index="6955" value="1"/>
  <variable index="7105" value="1"/>
  <variable index="7174" value="1"/>
  <variable index="7239" value="1"/>
  <variable index="7359" value="1"/>
  <variable index="7496" value="1"/>
  <variable index="7601" value="1"/>
  <variable index="7709" value="1"/>
  <variable index="7712" value="1"/>
  <variable index="7860" value="1"/>
  <variable index="7922" value="1"/>
  <variable index="8025" value="1"/>
  <variable index="8137" value="1"/>
  <variable index="8247" value="1"/>
  <variable index="8313" value="1"/>
  <variable index="8502" value="1"/>
  <variable index="8548" value="1"/>
  <variable index="8707" value="1"/>
  <variable index="8729" value="1"/>
  <variable index="8893" value="1"/>
  <variable index="8951" value="1"/>
  <variable index="9035" value="1"/>
  <variable index="9114" value="1"/>
  <variable index="9230" value="1"/>
  <variable index="9350" value="1"/>
  <variable index="9457" value="1"/>
  <variable index="9577" value="1"/>
  <variable index="9688" value="1"/>
  <variable index="9772" value="1"/>
  <variable index="9879" value="1"/>
  <variable index="9986" value="1"/>
  <variable index="10010" value="1"/>
  <variable index="10012" value="1"/>
  <variable index="10013" value="1"/>
  <variable index="10015" value="1"/>
  <variable index="10017" value="1"/>
  <variable index="10018" value="1"/>
  <variable index="10020" value="666"/>
 </variables>
</CPLEXSolution>
